p cnf 146 672
1 -93 -77 0
-1 93 -77 0
1 93 -78 0
-1 -93 -78 0
20 -93 -81 0
-20 93 -81 0
20 93 -82 0
-20 -93 -82 0
39 -93 -85 0
-39 93 -85 0
39 93 -86 0
-39 -93 -86 0
58 -93 -89 0
-58 93 -89 0
58 93 -90 0
-58 -93 -90 0
2 -94 -77 0
-2 94 -77 0
2 94 -78 0
-2 -94 -78 0
21 -94 -81 0
-21 94 -81 0
21 94 -82 0
-21 -94 -82 0
40 -94 -85 0
-40 94 -85 0
40 94 -86 0
-40 -94 -86 0
59 -94 -89 0
-59 94 -89 0
59 94 -90 0
-59 -94 -90 0
-3 -77 0
-3 -78 0
77 -77 0
78 -78 0
-22 -81 0
-22 -82 0
81 -81 0
82 -82 0
-41 -85 0
-41 -86 0
85 -85 0
86 -86 0
-60 -89 0
-60 -90 0
89 -89 0
90 -90 0
4 -77 0
4 -78 0
77 -77 0
78 -78 0
23 -81 0
23 -82 0
81 -81 0
82 -82 0
42 -85 0
42 -86 0
85 -85 0
86 -86 0
61 -89 0
61 -90 0
89 -89 0
90 -90 0
5 -77 0
5 -78 0
77 -77 0
78 -78 0
24 -81 0
24 -82 0
81 -81 0
82 -82 0
43 -85 0
43 -86 0
85 -85 0
86 -86 0
62 -89 0
62 -90 0
89 -89 0
90 -90 0
6 -95 -77 0
-6 95 -77 0
6 95 -78 0
-6 -95 -78 0
25 -95 -81 0
-25 95 -81 0
25 95 -82 0
-25 -95 -82 0
44 -95 -85 0
-44 95 -85 0
44 95 -86 0
-44 -95 -86 0
63 -95 -89 0
-63 95 -89 0
63 95 -90 0
-63 -95 -90 0
7 -96 -77 0
-7 96 -77 0
7 96 -78 0
-7 -96 -78 0
26 -96 -81 0
-26 96 -81 0
26 96 -82 0
-26 -96 -82 0
45 -96 -85 0
-45 96 -85 0
45 96 -86 0
-45 -96 -86 0
64 -96 -89 0
-64 96 -89 0
64 96 -90 0
-64 -96 -90 0
8 -97 -77 0
-8 97 -77 0
8 97 -78 0
-8 -97 -78 0
27 -97 -81 0
-27 97 -81 0
27 97 -82 0
-27 -97 -82 0
46 -97 -85 0
-46 97 -85 0
46 97 -86 0
-46 -97 -86 0
65 -97 -89 0
-65 97 -89 0
65 97 -90 0
-65 -97 -90 0
-9 -77 0
-9 -78 0
77 -77 0
78 -78 0
-28 -81 0
-28 -82 0
81 -81 0
82 -82 0
-47 -85 0
-47 -86 0
85 -85 0
86 -86 0
-66 -89 0
-66 -90 0
89 -89 0
90 -90 0
10 -77 0
10 -78 0
77 -77 0
78 -78 0
29 -81 0
29 -82 0
81 -81 0
82 -82 0
48 -85 0
48 -86 0
85 -85 0
86 -86 0
67 -89 0
67 -90 0
89 -89 0
90 -90 0
11 -98 -77 0
-11 98 -77 0
11 98 -78 0
-11 -98 -78 0
30 -98 -81 0
-30 98 -81 0
30 98 -82 0
-30 -98 -82 0
49 -98 -85 0
-49 98 -85 0
49 98 -86 0
-49 -98 -86 0
68 -98 -89 0
-68 98 -89 0
68 98 -90 0
-68 -98 -90 0
12 -77 0
12 -78 0
77 -77 0
78 -78 0
31 -81 0
31 -82 0
81 -81 0
82 -82 0
50 -85 0
50 -86 0
85 -85 0
86 -86 0
69 -89 0
69 -90 0
89 -89 0
90 -90 0
13 -77 0
13 -78 0
77 -77 0
78 -78 0
32 -81 0
32 -82 0
81 -81 0
82 -82 0
51 -85 0
51 -86 0
85 -85 0
86 -86 0
70 -89 0
70 -90 0
89 -89 0
90 -90 0
14 -77 0
14 -78 0
77 -77 0
78 -78 0
33 -81 0
33 -82 0
81 -81 0
82 -82 0
52 -85 0
52 -86 0
85 -85 0
86 -86 0
71 -89 0
71 -90 0
89 -89 0
90 -90 0
15 -99 -77 0
-15 99 -77 0
15 99 -78 0
-15 -99 -78 0
34 -99 -81 0
-34 99 -81 0
34 99 -82 0
-34 -99 -82 0
53 -99 -85 0
-53 99 -85 0
53 99 -86 0
-53 -99 -86 0
72 -99 -89 0
-72 99 -89 0
72 99 -90 0
-72 -99 -90 0
-16 -77 0
-16 -78 0
77 -77 0
78 -78 0
-35 -81 0
-35 -82 0
81 -81 0
82 -82 0
-54 -85 0
-54 -86 0
85 -85 0
86 -86 0
-73 -89 0
-73 -90 0
89 -89 0
90 -90 0
17 -77 0
17 -78 0
77 -77 0
78 -78 0
36 -81 0
36 -82 0
81 -81 0
82 -82 0
55 -85 0
55 -86 0
85 -85 0
86 -86 0
74 -89 0
74 -90 0
89 -89 0
90 -90 0
18 -77 0
18 -78 0
77 -77 0
78 -78 0
37 -81 0
37 -82 0
81 -81 0
82 -82 0
56 -85 0
56 -86 0
85 -85 0
86 -86 0
75 -89 0
75 -90 0
89 -89 0
90 -90 0
19 -77 0
19 -78 0
77 -77 0
78 -78 0
38 -81 0
38 -82 0
81 -81 0
82 -82 0
57 -85 0
57 -86 0
85 -85 0
86 -86 0
76 -89 0
76 -90 0
89 -89 0
90 -90 0
-131 77 0
131 -77 0
-132 78 0
131 -78 0
-131 -77 0
-132 -78 0
-135 77 131 0
135 -77 0
135 -131 0
-136 78 132 0
136 -78 0
136 -132 0
-135 -81 0
-136 -82 0
-139 81 135 0
139 -81 0
139 -135 0
-140 82 136 0
140 -82 0
140 -136 0
-139 -85 0
-140 -86 0
-143 85 139 0
143 -85 0
143 -139 0
-144 86 140 0
144 -86 0
144 -140 0
-143 -89 0
-144 -90 0
143 0
144 0
1 -79 0
1 -80 0
79 -79 0
80 -80 0
20 -83 0
20 -84 0
83 -83 0
84 -84 0
39 -87 0
39 -88 0
87 -87 0
88 -88 0
58 -91 0
58 -92 0
91 -91 0
92 -92 0
2 -79 0
2 -80 0
79 -79 0
80 -80 0
21 -83 0
21 -84 0
83 -83 0
84 -84 0
40 -87 0
40 -88 0
87 -87 0
88 -88 0
59 -91 0
59 -92 0
91 -91 0
92 -92 0
3 -79 0
3 -80 0
79 -79 0
80 -80 0
22 -83 0
22 -84 0
83 -83 0
84 -84 0
41 -87 0
41 -88 0
87 -87 0
88 -88 0
60 -91 0
60 -92 0
91 -91 0
92 -92 0
4 -79 0
4 -80 0
79 -79 0
80 -80 0
23 -83 0
23 -84 0
83 -83 0
84 -84 0
42 -87 0
42 -88 0
87 -87 0
88 -88 0
61 -91 0
61 -92 0
91 -91 0
92 -92 0
5 -79 0
5 -80 0
79 -79 0
80 -80 0
24 -83 0
24 -84 0
83 -83 0
84 -84 0
43 -87 0
43 -88 0
87 -87 0
88 -88 0
62 -91 0
62 -92 0
91 -91 0
92 -92 0
6 -79 0
6 -80 0
79 -79 0
80 -80 0
25 -83 0
25 -84 0
83 -83 0
84 -84 0
44 -87 0
44 -88 0
87 -87 0
88 -88 0
63 -91 0
63 -92 0
91 -91 0
92 -92 0
7 -79 0
7 -80 0
79 -79 0
80 -80 0
26 -83 0
26 -84 0
83 -83 0
84 -84 0
45 -87 0
45 -88 0
87 -87 0
88 -88 0
64 -91 0
64 -92 0
91 -91 0
92 -92 0
8 -79 0
8 -80 0
79 -79 0
80 -80 0
27 -83 0
27 -84 0
83 -83 0
84 -84 0
46 -87 0
46 -88 0
87 -87 0
88 -88 0
65 -91 0
65 -92 0
91 -91 0
92 -92 0
-9 -79 0
-9 -80 0
79 -79 0
80 -80 0
-28 -83 0
-28 -84 0
83 -83 0
84 -84 0
-47 -87 0
-47 -88 0
87 -87 0
88 -88 0
-66 -91 0
-66 -92 0
91 -91 0
92 -92 0
10 -79 0
10 -80 0
79 -79 0
80 -80 0
29 -83 0
29 -84 0
83 -83 0
84 -84 0
48 -87 0
48 -88 0
87 -87 0
88 -88 0
67 -91 0
67 -92 0
91 -91 0
92 -92 0
11 -79 0
11 -80 0
79 -79 0
80 -80 0
30 -83 0
30 -84 0
83 -83 0
84 -84 0
49 -87 0
49 -88 0
87 -87 0
88 -88 0
68 -91 0
68 -92 0
91 -91 0
92 -92 0
-12 -79 0
-12 -80 0
79 -79 0
80 -80 0
-31 -83 0
-31 -84 0
83 -83 0
84 -84 0
-50 -87 0
-50 -88 0
87 -87 0
88 -88 0
-69 -91 0
-69 -92 0
91 -91 0
92 -92 0
-13 -79 0
-13 -80 0
79 -79 0
80 -80 0
-32 -83 0
-32 -84 0
83 -83 0
84 -84 0
-51 -87 0
-51 -88 0
87 -87 0
88 -88 0
-70 -91 0
-70 -92 0
91 -91 0
92 -92 0
-14 -79 0
-14 -80 0
79 -79 0
80 -80 0
-33 -83 0
-33 -84 0
83 -83 0
84 -84 0
-52 -87 0
-52 -88 0
87 -87 0
88 -88 0
-71 -91 0
-71 -92 0
91 -91 0
92 -92 0
-15 -79 0
-15 -80 0
79 -79 0
80 -80 0
-34 -83 0
-34 -84 0
83 -83 0
84 -84 0
-53 -87 0
-53 -88 0
87 -87 0
88 -88 0
-72 -91 0
-72 -92 0
91 -91 0
92 -92 0
16 -79 0
16 -80 0
79 -79 0
80 -80 0
35 -83 0
35 -84 0
83 -83 0
84 -84 0
54 -87 0
54 -88 0
87 -87 0
88 -88 0
73 -91 0
73 -92 0
91 -91 0
92 -92 0
-17 -79 0
-17 -80 0
79 -79 0
80 -80 0
-36 -83 0
-36 -84 0
83 -83 0
84 -84 0
-55 -87 0
-55 -88 0
87 -87 0
88 -88 0
-74 -91 0
-74 -92 0
91 -91 0
92 -92 0
-18 -79 0
-18 -80 0
79 -79 0
80 -80 0
-37 -83 0
-37 -84 0
83 -83 0
84 -84 0
-56 -87 0
-56 -88 0
87 -87 0
88 -88 0
-75 -91 0
-75 -92 0
91 -91 0
92 -92 0
-19 -79 0
-19 -80 0
79 -79 0
80 -80 0
-38 -83 0
-38 -84 0
83 -83 0
84 -84 0
-57 -87 0
-57 -88 0
87 -87 0
88 -88 0
-76 -91 0
-76 -92 0
91 -91 0
92 -92 0
-133 79 0
133 -79 0
-134 80 0
133 -80 0
-133 -79 0
-134 -80 0
-137 79 133 0
137 -79 0
137 -133 0
-138 80 134 0
138 -80 0
138 -134 0
-137 -83 0
-138 -84 0
-141 83 137 0
141 -83 0
141 -137 0
-142 84 138 0
142 -84 0
142 -138 0
-141 -87 0
-142 -88 0
-145 87 141 0
145 -87 0
145 -141 0
-146 88 142 0
146 -88 0
146 -142 0
-145 -91 0
-146 -92 0
145 0
146 0
